
  16    0


   0  10 2 3 4 5 6 11 12 13 14 15 
   2   4 10 9 8 7 
   8   2 8 7 
   1   1 7 
   4   1 7 
   8   1 7 
   9   1 16
   9   1 16
   8   1 16
   3   1 16
  10   1 16
   4   1 16
   2   1 16
   6   1 16
   2   1 16
   0   0 
